\* The Dual Problem *\
Maximize
OBJ: gammac1 + gammac10 + gammac2 + gammac3 + gammac4 + gammac5 + gammac6
 + gammac7 + gammac8 + gammac9 + pin100 + pin51 + pin52 + pin53 + pin54
 + pin55 + pin56 + pin57 + pin58 + pin59 + pin60 + pin61 + pin62 + pin63
 + pin64 + pin65 + pin66 + pin67 + pin68 + pin69 + pin70 + pin71 + pin72
 + pin73 + pin74 + pin75 + pin76 + pin77 + pin78 + pin79 + pin80 + pin81
 + pin82 + pin83 + pin84 + pin85 + pin86 + pin87 + pin88 + pin89 + pin90
 + pin91 + pin92 + pin93 + pin94 + pin95 + pin96 + pin97 + pin98 + pin99
Subject To
_C1: gammac1 <= 0
_C10: gammac1 + pin56 + pin63 + pin65 + pin74 + pin85 + pin88 <= 1125.07591191
_C100: gammac5 + pin54 + pin59 + pin60 + pin66 + pin97 <= 1181.886828
_C101: gammac5 + pin51 + pin56 + pin60 + pin65 + pin70 + pin79
 <= 1204.26853974
_C102: gammac5 + pin53 + pin58 + pin61 + pin62 + pin66 + pin79
 <= 916.630224489
_C103: gammac5 + pin52 + pin57 + pin62 + pin63 + pin81 <= 997.089118142
_C104: gammac5 + pin55 + pin59 + pin61 + pin64 + pin85 <= 987.596538038
_C105: gammac5 + pin100 + pin53 + pin57 + pin58 + pin68 <= 964.48288434
_C106: gammac5 + pin100 + pin53 + pin56 + pin63 + pin65 + pin66
 <= 1040.94250355
_C107: gammac5 + pin53 + pin54 + pin60 + pin67 + pin79 + pin97
 <= 1144.70275891
_C108: gammac5 + pin51 + pin59 + pin62 + pin70 + pin78 <= 842.67892962
_C109: gammac5 + pin52 + pin61 + pin69 + pin95 + pin97 <= 891.558885897
_C11: gammac1 + pin54 + pin60 + pin67 + pin73 + pin79 <= 1004.26732
_C110: gammac5 + pin53 + pin55 + pin58 + pin62 + pin68 + pin76 + pin88 + pin97
 <= 1306.38789913
_C111: gammac5 + pin54 + pin57 + pin64 + pin74 + pin76 + pin89
 <= 1062.71839555
_C112: gammac5 + pin53 + pin55 + pin60 + pin62 + pin77 + pin78
 <= 1034.00722188
_C113: gammac5 + pin54 + pin55 + pin56 + pin67 + pin69 + pin74
 <= 991.060887375
_C114: gammac5 + pin58 + pin59 + pin76 + pin77 + pin95 <= 1032.31439784
_C115: gammac5 + pin55 + pin62 + pin64 + pin67 + pin71 + pin75
 <= 969.116172865
_C116: gammac5 + pin51 + pin54 + pin63 + pin70 + pin82 <= 972.952295096
_C117: gammac5 + pin53 + pin56 + pin59 + pin70 + pin87 <= 1155.56033022
_C118: gammac5 + pin52 + pin56 + pin60 + pin77 + pin88 <= 965.112573792
_C119: gammac5 + pin57 + pin68 + pin70 + pin86 <= 830.122498592
_C12: gammac1 + pin51 + pin59 + pin62 + pin64 + pin71 + pin79 <= 1093.24396856
_C120: gammac5 + pin51 + pin56 + pin68 + pin78 + pin81 + pin82
 <= 1161.29604143
_C121: gammac6 <= 0
_C122: gammac6 + pin51 + pin52 + pin53 + pin54 + pin55 + pin81 + pin82
 <= 1103.11324418
_C123: gammac6 + pin55 + pin56 + pin57 + pin58 + pin59 + pin98
 <= 1217.72414707
_C124: gammac6 + pin54 + pin59 + pin60 + pin66 <= 947.700983924
_C125: gammac6 + pin51 + pin56 + pin60 + pin64 + pin76 + pin79
 <= 1139.72499495
_C126: gammac6 + pin53 + pin58 + pin61 + pin62 + pin89 <= 954.080463807
_C127: gammac6 + pin52 + pin57 + pin62 + pin63 + pin72 <= 973.686064168
_C128: gammac6 + pin55 + pin59 + pin61 + pin68 + pin75 <= 953.180891308
_C129: gammac6 + pin53 + pin57 + pin58 + pin67 + pin79 <= 847.668928959
_C13: gammac1 + pin52 + pin64 + pin71 + pin74 <= 808.477878696
_C130: gammac6 + pin53 + pin56 + pin63 + pin65 + pin76 <= 953.485000732
_C131: gammac6 + pin53 + pin54 + pin60 + pin67 + pin73 <= 1018.62942663
_C132: gammac6 + pin51 + pin59 + pin62 + pin69 + pin79 <= 854.458519699
_C133: gammac6 + pin52 + pin61 + pin69 + pin97 <= 828.850134227
_C134: gammac6 + pin53 + pin55 + pin58 + pin68 + pin76 + pin88
 <= 1109.46603993
_C135: gammac6 + pin51 + pin57 + pin64 <= 513.871277513
_C136: gammac6 + pin53 + pin55 + pin60 + pin77 + pin78 + pin79
 <= 973.770030731
_C137: gammac6 + pin53 + pin55 + pin56 + pin68 + pin69 + pin76 <= 872.52263952
_C138: gammac6 + pin58 + pin59 + pin76 + pin77 <= 844.736548622
_C139: gammac6 + pin55 + pin62 + pin64 + pin71 + pin72 + pin90
 <= 985.116965302
_C14: gammac1 + pin55 + pin58 + pin66 + pin72 + pin84 <= 946.294979111
_C140: gammac6 + pin51 + pin54 + pin63 + pin70 + pin79 + pin82
 <= 1009.80888207
_C141: gammac6 + pin53 + pin59 + pin60 + pin70 + pin78 + pin95
 <= 1176.39630095
_C142: gammac6 + pin52 + pin56 + pin68 + pin75 + pin79 + pin81 + pin88
 <= 1334.14086262
_C143: gammac6 + pin100 + pin57 + pin68 + pin70 <= 751.326333949
_C144: gammac6 + pin51 + pin56 + pin73 + pin81 <= 667.496473524
_C145: gammac7 <= 0
_C146: gammac7 + pin51 + pin52 + pin53 + pin54 + pin56 + pin62
 <= 1210.15833306
_C147: gammac7 + pin55 + pin56 + pin57 + pin58 + pin61 + pin62
 <= 942.205254617
_C148: gammac7 + pin54 + pin59 + pin60 + pin61 <= 918.632312388
_C149: gammac7 + pin51 + pin56 + pin60 + pin65 + pin70 + pin79
 <= 1192.81659867
_C15: gammac1 + pin51 + pin57 + pin70 + pin76 + pin77 + pin78 + pin89
 <= 1265.74506861
_C150: gammac7 + pin53 + pin58 + pin62 + pin63 + pin66 <= 947.800792563
_C151: gammac7 + pin100 + pin52 + pin57 + pin62 + pin66 + pin68 + pin75
 <= 1292.86881149
_C152: gammac7 + pin55 + pin59 + pin61 + pin68 + pin76 <= 925.343693535
_C153: gammac7 + pin54 + pin57 + pin58 + pin64 <= 933.587282734
_C154: gammac7 + pin56 + pin63 + pin64 + pin71 + pin74 <= 1070.25667114
_C155: gammac7 + pin100 + pin54 + pin60 + pin66 + pin74 + pin89
 <= 1027.20805774
_C156: gammac7 + pin51 + pin59 + pin62 + pin69 + pin79 <= 842.75981464
_C157: gammac7 + pin52 + pin61 + pin66 + pin76 + pin79 <= 827.819648329
_C158: gammac7 + pin55 + pin58 + pin66 + pin71 + pin76 + pin79
 <= 890.784963006
_C159: gammac7 + pin54 + pin57 + pin64 + pin74 + pin89 <= 1001.59777217
_C16: gammac1 + pin53 + pin55 + pin62 + pin65 + pin72 <= 883.800715775
_C160: gammac7 + pin53 + pin55 + pin62 + pin65 + pin72 + pin79
 <= 958.697148832
_C161: gammac7 + pin55 + pin56 + pin65 + pin68 + pin74 + pin87
 <= 1057.35915758
_C162: gammac7 + pin58 + pin59 + pin71 + pin76 + pin85 <= 963.298617922
_C163: gammac7 + pin55 + pin62 + pin64 + pin71 + pin75 + pin80 + pin85
 <= 1228.03234469
_C164: gammac7 + pin51 + pin56 + pin63 + pin70 <= 813.315249849
_C165: gammac7 + pin56 + pin59 + pin70 + pin77 <= 854.012708291
_C166: gammac7 + pin56 + pin57 + pin60 + pin73 <= 859.881080823
_C167: gammac7 + pin57 + pin68 + pin69 + pin72 + pin84 + pin95
 <= 1212.84049151
_C168: gammac7 + pin51 + pin56 + pin68 + pin78 + pin81 + pin82
 <= 1149.84410036
_C169: gammac8 <= 0
_C17: gammac1 + pin54 + pin56 + pin69 + pin74 + pin85 + pin98 <= 1261.09759619
_C170: gammac8 + pin51 + pin52 + pin53 + pin54 + pin55 + pin62 + pin68
 <= 1198.08456948
_C171: gammac8 + pin55 + pin56 + pin57 + pin58 + pin64 <= 1034.2220393
_C172: gammac8 + pin54 + pin59 + pin61 + pin62 + pin98 <= 1105.28926393
_C173: gammac8 + pin51 + pin56 + pin60 + pin61 + pin67 <= 965.640408759
_C174: gammac8 + pin53 + pin58 + pin61 + pin63 + pin66 + pin97
 <= 1075.45390586
_C175: gammac8 + pin100 + pin52 + pin57 + pin62 + pin63 <= 1018.74457017
_C176: gammac8 + pin55 + pin59 + pin61 + pin65 + pin79 <= 835.785601411
_C177: gammac8 + pin53 + pin54 + pin57 + pin58 + pin65 + pin97
 <= 1067.75151602
_C178: gammac8 + pin53 + pin54 + pin56 + pin63 + pin66 + pin67 + pin68
 <= 1279.87031803
_C179: gammac8 + pin53 + pin54 + pin60 + pin67 + pin70 + pin78
 <= 1213.43167637
_C18: gammac1 + pin58 + pin59 + pin65 + pin76 + pin78 <= 960.947788721
_C180: gammac8 + pin51 + pin59 + pin62 + pin67 + pin69 + pin78
 <= 937.518804481
_C181: gammac8 + pin52 + pin61 + pin64 + pin71 + pin83 <= 935.879497936
_C182: gammac8 + pin53 + pin55 + pin58 + pin67 + pin74 + pin79 + pin83 + pin88
 <= 1288.89860526
_C183: gammac8 + pin51 + pin54 + pin57 + pin64 + pin79 + pin89
 <= 1127.41636039
_C184: gammac8 + pin53 + pin55 + pin60 + pin62 + pin70 + pin76 + pin79
 <= 1155.67848317
_C185: gammac8 + pin53 + pin54 + pin65 + pin68 + pin71 + pin73
 <= 1167.45880215
_C186: gammac8 + pin58 + pin59 + pin65 + pin81 <= 914.007614622
_C187: gammac8 + pin55 + pin62 + pin64 + pin67 + pin71 + pin75
 <= 1012.53713053
_C188: gammac8 + pin51 + pin54 + pin63 + pin67 + pin75 + pin87
 <= 1085.38550139
_C189: gammac8 + pin53 + pin59 + pin72 + pin73 <= 768.793268801
_C19: gammac1 + pin55 + pin59 + pin62 + pin64 + pin79 + pin90 + pin98
 <= 1171.33510902
_C190: gammac8 + pin52 + pin60 + pin68 + pin75 + pin77 <= 948.142380071
_C191: gammac8 + pin100 + pin57 + pin67 + pin68 + pin72 + pin74 + pin94
 <= 1314.74832636
_C192: gammac8 + pin51 + pin56 + pin60 + pin70 + pin78 + pin82
 <= 1091.98857824
_C193: gammac9 <= 0
_C194: gammac9 + pin51 + pin52 + pin53 + pin54 + pin55 <= 807.923906389
_C195: gammac9 + pin55 + pin56 + pin57 + pin58 + pin59 <= 957.991735551
_C196: gammac9 + pin54 + pin59 + pin60 + pin66 + pin97 <= 1196.28457443
_C197: gammac9 + pin51 + pin56 + pin60 + pin65 + pin70 + pin79
 <= 1192.81659867
_C198: gammac9 + pin53 + pin58 + pin61 + pin62 + pin66 <= 858.734201575
_C199: gammac9 + pin52 + pin57 + pin62 + pin63 + pin66 + pin89
 <= 965.000016626
_C2: gammac1 + pin51 + pin52 + pin53 + pin54 + pin59 + pin67 <= 1068.55280991
_C20: gammac1 + pin51 + pin54 + pin59 + pin63 + pin75 + pin96 <= 1241.90250256
_C200: gammac9 + pin55 + pin59 + pin61 + pin68 + pin76 + pin89
 <= 962.041507223
_C201: gammac9 + pin100 + pin53 + pin57 + pin58 + pin64 <= 903.50082331
_C202: gammac9 + pin100 + pin53 + pin56 + pin63 + pin65 + pin66
 <= 1011.91147252
_C203: gammac9 + pin100 + pin54 + pin60 + pin66 + pin67 + pin89
 <= 871.445670184
_C204: gammac9 + pin51 + pin59 + pin62 + pin66 + pin75 + pin79
 <= 1131.81730126
_C205: gammac9 + pin52 + pin61 + pin66 + pin69 + pin95 <= 968.217399037
_C206: gammac9 + pin53 + pin55 + pin58 + pin62 + pin68 + pin76 + pin88
 <= 1137.29738421
_C207: gammac9 + pin54 + pin57 + pin64 + pin74 + pin76 <= 946.966546487
_C208: gammac9 + pin53 + pin55 + pin60 + pin62 + pin78 <= 760.21369284
_C209: gammac9 + pin54 + pin55 + pin56 + pin67 + pin69 + pin74
 <= 945.331073188
_C21: gammac1 + pin56 + pin59 + pin60 + pin70 + pin77 + pin85 <= 1218.54032853
_C210: gammac9 + pin58 + pin59 + pin76 + pin77 + pin95 <= 1051.91096688
_C211: gammac9 + pin55 + pin62 + pin64 + pin67 + pin71 + pin79 + pin81
 <= 1104.95960822
_C212: gammac9 + pin51 + pin54 + pin56 + pin75 + pin79 + pin80 <= 1141.4890634
_C213: gammac9 + pin53 + pin56 + pin59 + pin70 + pin87 <= 1146.017046
_C214: gammac9 + pin52 + pin56 + pin60 + pin77 + pin88 <= 955.569289563
_C215: gammac9 + pin57 + pin68 + pin70 + pin81 + pin86 <= 1073.44779686
_C216: gammac9 + pin51 + pin56 + pin68 + pin78 + pin81 + pin82
 <= 1149.84410036
_C217: gammac10 <= 0
_C218: gammac10 + pin51 + pin52 + pin53 + pin54 + pin55 + pin74 + pin94
 <= 1331.4716116
_C219: gammac10 + pin55 + pin56 + pin57 + pin58 + pin66 + pin79 + pin98
 <= 1272.99225362
_C22: gammac1 + pin56 + pin58 + pin60 + pin77 + pin88 <= 1049.82956892
_C220: gammac10 + pin54 + pin59 + pin62 + pin67 + pin74 <= 899.276822445
_C221: gammac10 + pin51 + pin56 + pin60 + pin63 + pin76 + pin79
 <= 1247.21830613
_C222: gammac10 + pin53 + pin58 + pin61 + pin62 + pin63 + pin66 + pin85
 <= 1329.7505793
_C223: gammac10 + pin52 + pin57 + pin60 + pin70 <= 825.536015492
_C224: gammac10 + pin55 + pin59 + pin61 + pin63 + pin76 <= 853.524997821
_C225: gammac10 + pin100 + pin53 + pin57 + pin58 + pin64 <= 897.668824301
_C226: gammac10 + pin52 + pin56 + pin63 + pin65 + pin66 + pin74
 <= 1242.60533479
_C227: gammac10 + pin53 + pin54 + pin66 + pin67 + pin69 + pin74
 <= 1060.79146798
_C228: gammac10 + pin51 + pin52 + pin62 + pin64 + pin68 + pin79 + pin90
 <= 1441.44284655
_C229: gammac10 + pin52 + pin61 + pin66 + pin69 <= 735.269547234
_C23: gammac1 + pin57 + pin70 + pin77 + pin78 + pin88 <= 911.298529862
_C230: gammac10 + pin53 + pin55 + pin58 + pin66 + pin68 + pin76 + pin87
 + pin88 + pin97 <= 1538.66843002
_C231: gammac10 + pin53 + pin57 + pin63 + pin68 + pin72 + pin84
 <= 1107.22687028
_C232: gammac10 + pin53 + pin55 + pin60 + pin62 + pin77 + pin78
 <= 1182.17688703
_C233: gammac10 + pin100 + pin53 + pin56 + pin68 + pin69 + pin76 + pin87
 <= 1173.13898837
_C234: gammac10 + pin58 + pin63 + pin65 + pin74 + pin89 <= 1002.90104045
_C235: gammac10 + pin100 + pin53 + pin62 + pin64 + pin66 <= 762.733043821
_C236: gammac10 + pin51 + pin54 + pin63 + pin67 + pin79 + pin84 + pin87
 + pin96 <= 1389.94694351
_C237: gammac10 + pin53 + pin59 + pin66 + pin73 + pin81 + pin82 + pin97
 <= 1302.40078091
_C238: gammac10 + pin52 + pin56 + pin60 + pin68 + pin77 + pin78
 <= 1066.23518868
_C239: gammac10 + pin57 + pin68 + pin70 + pin77 + pin87 + pin89
 <= 1107.38049927
_C24: gammac1 + pin51 + pin56 + pin73 <= 497.472919873
_C240: gammac10 + pin51 + pin56 + pin68 + pin78 + pin81 + pin84
 <= 1102.08815895
_C241: pin51 <= 400
_C242: pin52 <= 400
_C243: pin53 <= 400
_C244: pin54 <= 400
_C245: pin55 <= 400
_C246: pin56 <= 400
_C247: pin57 <= 400
_C248: pin58 <= 400
_C249: pin59 <= 400
_C25: gammac2 <= 0
_C250: pin60 <= 400
_C251: pin61 <= 400
_C252: pin62 <= 400
_C253: pin63 <= 400
_C254: pin64 <= 400
_C255: pin65 <= 400
_C256: pin66 <= 400
_C257: pin67 <= 400
_C258: pin68 <= 400
_C259: pin69 <= 400
_C26: gammac2 + pin51 + pin52 + pin53 + pin54 + pin55 <= 1142.00440393
_C260: pin70 <= 400
_C261: pin71 <= 400
_C262: pin72 <= 400
_C263: pin73 <= 400
_C264: pin74 <= 400
_C265: pin75 <= 400
_C266: pin76 <= 400
_C267: pin77 <= 400
_C268: pin78 <= 400
_C269: pin79 <= 400
_C27: gammac2 + pin100 + pin55 + pin56 + pin57 + pin58 + pin66
 <= 976.683617398
_C270: pin80 <= 400
_C271: pin81 <= 400
_C272: pin82 <= 400
_C273: pin83 <= 400
_C274: pin84 <= 400
_C275: pin85 <= 400
_C276: pin86 <= 400
_C277: pin87 <= 400
_C278: pin88 <= 400
_C279: pin89 <= 400
_C28: gammac2 + pin54 + pin59 + pin61 + pin62 + pin66 + pin67 <= 1194.84080856
_C280: pin90 <= 400
_C281: pin91 <= 400
_C282: pin92 <= 400
_C283: pin93 <= 400
_C284: pin94 <= 400
_C285: pin95 <= 400
_C286: pin96 <= 400
_C287: pin97 <= 400
_C288: pin98 <= 400
_C289: pin99 <= 400
_C29: gammac2 + pin51 + pin56 + pin60 + pin66 + pin70 <= 935.923340933
_C290: pin100 <= 400
_C3: gammac1 + pin55 + pin56 + pin57 + pin58 + pin62 + pin66 <= 1002.21913724
_C30: gammac2 + pin53 + pin58 + pin61 + pin62 + pin66 + pin85 <= 1022.28512891
_C31: gammac2 + pin100 + pin52 + pin57 + pin62 + pin63 + pin82
 <= 1000.17725008
_C32: gammac2 + pin100 + pin55 + pin59 + pin61 + pin64 + pin71
 <= 1030.86985213
_C33: gammac2 + pin100 + pin53 + pin57 + pin58 + pin64 + pin71
 <= 1077.95880733
_C34: gammac2 + pin100 + pin56 + pin63 + pin65 + pin66 + pin74
 <= 1041.66413534
_C35: gammac2 + pin100 + pin54 + pin60 + pin66 + pin67 + pin89
 <= 902.540438805
_C36: gammac2 + pin51 + pin58 + pin62 + pin64 + pin66 + pin71 <= 1068.20660802
_C37: gammac2 + pin52 + pin57 + pin61 + pin66 + pin71 + pin90 + pin93
 <= 1300.10057932
_C38: gammac2 + pin53 + pin55 + pin58 + pin66 + pin71 + pin74 + pin88
 <= 1167.26314154
_C39: gammac2 + pin57 + pin64 + pin74 + pin76 <= 778.365858813
_C4: gammac1 + pin54 + pin59 + pin60 + pin61 + pin66 + pin97 <= 1309.9090939
_C40: gammac2 + pin53 + pin55 + pin62 + pin65 + pin69 <= 902.553289546
_C41: gammac2 + pin55 + pin56 + pin65 + pin69 + pin74 + pin98 <= 1187.46361598
_C42: gammac2 + pin58 + pin59 + pin72 + pin78 + pin81 <= 1091.70452735
_C43: gammac2 + pin100 + pin55 + pin62 + pin64 + pin66 + pin71 + pin75 + pin88
 <= 1200.97394453
_C44: gammac2 + pin100 + pin54 + pin56 + pin61 + pin75 + pin81
 <= 1177.96170574
_C45: gammac2 + pin53 + pin59 + pin66 + pin75 + pin81 + pin89 <= 1138.88058671
_C46: gammac2 + pin52 + pin56 + pin68 + pin75 + pin81 + pin88 <= 1300.46471041
_C47: gammac2 + pin57 + pin61 + pin70 + pin73 + pin77 <= 1019.72708184
_C48: gammac2 + pin51 + pin56 + pin58 + pin61 + pin78 + pin84 <= 1166.14687027
_C49: gammac3 <= 0
_C5: gammac1 + pin51 + pin56 + pin60 + pin67 + pin76 + pin79 <= 1125.07402685
_C50: gammac3 + pin51 + pin52 + pin53 + pin54 + pin55 + pin62 <= 1219.67089573
_C51: gammac3 + pin55 + pin56 + pin57 + pin58 + pin62 <= 1009.63592702
_C52: gammac3 + pin54 + pin59 + pin62 + pin67 + pin74 <= 903.648239321
_C53: gammac3 + pin51 + pin56 + pin60 + pin64 + pin76 + pin79 <= 1285.8244844
_C54: gammac3 + pin53 + pin58 + pin61 + pin62 + pin63 + pin85 <= 1222.13366967
_C55: gammac3 + pin52 + pin57 + pin60 + pin76 <= 849.331658185
_C56: gammac3 + pin55 + pin59 + pin61 + pin68 + pin76 <= 845.808434389
_C57: gammac3 + pin53 + pin57 + pin58 + pin65 + pin97 <= 973.552747007
_C58: gammac3 + pin53 + pin56 + pin63 + pin65 + pin66 + pin68 <= 1202.72023444
_C59: gammac3 + pin53 + pin54 + pin60 + pin67 + pin73 <= 1024.63160307
_C6: gammac1 + pin53 + pin58 + pin62 + pin63 + pin79 + pin88 <= 1248.89540418
_C60: gammac3 + pin51 + pin59 + pin62 + pin70 + pin72 + pin79 + pin84
 <= 1382.36273148
_C61: gammac3 + pin52 + pin61 + pin69 + pin97 <= 825.436597411
_C62: gammac3 + pin53 + pin55 + pin58 + pin68 + pin79 + pin87 + pin88 + pin97
 <= 1277.99362167
_C63: gammac3 + pin53 + pin57 + pin63 + pin68 + pin73 + pin76 <= 1104.12733795
_C64: gammac3 + pin53 + pin55 + pin60 + pin77 + pin78 <= 995.57233153
_C65: gammac3 + pin100 + pin53 + pin56 + pin68 + pin69 + pin76 + pin87
 <= 1236.26200432
_C66: gammac3 + pin58 + pin65 + pin74 + pin76 + pin98 <= 819.196079968
_C67: gammac3 + pin53 + pin55 + pin62 + pin72 + pin73 + pin79 + pin88
 <= 1011.54268616
_C68: gammac3 + pin51 + pin54 + pin63 + pin70 + pin82 <= 978.427212565
_C69: gammac3 + pin53 + pin59 + pin66 + pin73 + pin81 + pin82 <= 1199.17767065
_C7: gammac1 + pin100 + pin52 + pin57 + pin62 + pin66 + pin76 + pin82
 <= 1190.21164879
_C70: gammac3 + pin52 + pin60 + pin68 + pin77 + pin80 <= 984.692573293
_C71: gammac3 + pin57 + pin68 + pin70 + pin77 + pin87 <= 953.659221042
_C72: gammac3 + pin51 + pin56 + pin73 <= 517.795043851
_C73: gammac4 <= 0
_C74: gammac4 + pin51 + pin52 + pin53 + pin54 + pin59 + pin81 <= 1125.57689012
_C75: gammac4 + pin55 + pin56 + pin57 + pin58 + pin61 <= 880.205946636
_C76: gammac4 + pin54 + pin59 + pin60 + pin61 + pin66 <= 1134.97638162
_C77: gammac4 + pin51 + pin56 + pin60 + pin67 + pin76 + pin79 + pin88
 <= 1390.24785831
_C78: gammac4 + pin53 + pin58 + pin62 + pin63 + pin66 <= 943.15570365
_C79: gammac4 + pin52 + pin57 + pin62 + pin66 + pin68 + pin82 + pin85
 <= 1398.84139031
_C8: gammac1 + pin55 + pin59 + pin61 + pin65 + pin72 <= 1051.34174927
_C80: gammac4 + pin55 + pin59 + pin61 + pin65 + pin74 <= 996.424022734
_C81: gammac4 + pin100 + pin54 + pin57 + pin58 + pin67 + pin74
 <= 1254.92963779
_C82: gammac4 + pin56 + pin63 + pin65 + pin68 + pin85 + pin88 <= 1041.23619452
_C83: gammac4 + pin54 + pin60 + pin67 + pin73 + pin97 <= 1058.06259644
_C84: gammac4 + pin51 + pin59 + pin62 + pin64 + pin71 + pin79 <= 1144.64158169
_C85: gammac4 + pin52 + pin64 + pin71 + pin74 <= 836.053670896
_C86: gammac4 + pin55 + pin58 + pin66 + pin71 + pin76 + pin79 <= 889.523155089
_C87: gammac4 + pin54 + pin57 + pin64 + pin76 + pin81 <= 1033.21504638
_C88: gammac4 + pin53 + pin55 + pin62 + pin65 + pin72 + pin79 <= 953.123042136
_C89: gammac4 + pin54 + pin55 + pin56 + pin67 + pin69 + pin85 <= 891.935004378
_C9: gammac1 + pin54 + pin58 + pin67 + pin69 <= 814.801680918
_C90: gammac4 + pin58 + pin59 + pin65 + pin76 <= 721.465611877
_C91: gammac4 + pin55 + pin59 + pin62 + pin64 + pin82 <= 842.174816966
_C92: gammac4 + pin51 + pin54 + pin63 + pin70 + pin82 <= 972.952295096
_C93: gammac4 + pin56 + pin59 + pin60 + pin70 + pin77 + pin85 <= 1269.93794166
_C94: gammac4 + pin56 + pin57 + pin60 + pin73 <= 897.352954116
_C95: gammac4 + pin100 + pin57 + pin70 + pin77 + pin81 <= 932.142428829
_C96: gammac4 + pin51 + pin56 + pin73 <= 511.672118304
_C97: gammac5 <= 0
_C98: gammac5 + pin51 + pin52 + pin53 + pin54 + pin55 + pin74 <= 1073.93851345
_C99: gammac5 + pin55 + pin56 + pin57 + pin58 + pin59 + pin98 <= 1210.64210775
Bounds
-inf <= gammac1 <= 0
-inf <= gammac10 <= 0
-inf <= gammac2 <= 0
-inf <= gammac3 <= 0
-inf <= gammac4 <= 0
-inf <= gammac5 <= 0
-inf <= gammac6 <= 0
-inf <= gammac7 <= 0
-inf <= gammac8 <= 0
-inf <= gammac9 <= 0
End
